/*********************************************
 * OPL 22.1.0.0 Data
 * Author: Meh
 * Creation Date: Apr 14, 2024 at 2:41:24 AM
 *********************************************/

time = 200;

npoint = 13;

xc = [-15, 70, 20, 35, 48, 84, 98, 12, 30, 45, 0, -20, -30];
yc = [51, 61, 50, 8, 7, 64, 80, 78, 98, 80, 20, 20,   45];

ss = [0, 3, 1, 9, 7, 6, 4, 3, 7, 7, 5, 4, 0];
